NAME: Instances/Nodes/25n_10s_15d_instance.tsp
COMMENT: Ben Desjardins (bdesj038@uottawa.ca)
DIMENSION: 25
SPARCITY: 10
%HOLES: 15.0%
EDGE_WEIGHT_TYPE: EUC_2D


NODE	X_LOC	Y_LOC	DEMAND	BATTERY
DATASTART
0	0	0	0	0
1	152	491	1	65
2	-183	325	1	5
3	-28	317	1	74
4	-184	479	1	91
5	176	180	1	7
6	453	101	1	22
7	461	377	1	51
8	374	-214	1	73
9	-405	396	1	49
10	122	227	1	53
11	170	-181	1	44
12	-90	-42	1	4
13	-70	95	1	99
14	-258	464	1	2
15	225	-66	1	53
16	227	19	1	20
17	451	254	1	62
18	108	101	1	76
19	-428	438	1	96
20	313	-417	1	6
EODATA
NODE	X_LOC	Y_LOC	DEMAND	DEGREE
HOLESTART
0	100	-340	-1	12
1	-200	-360	-1	12
2	340	140	-1	12
3	-300	420	-1	12
EOHOLE
EOF
